
  22    4
  10   10   10   10

   0   0   0   0   0   4 2 3 4 7 
   2  10  10  10  10   2 8 6 
   1  10  10  10  10   2 8 6 
   1  10  10  10  10   1 5 
   9  10  10  10  10   3 11 9 8 
  10  10  10  10  10   4 13 11 10 9 
   2  10  10  10  10   1 8 
   9  10  10  10  10   3 13 12 10 
   6  10  10  10  10   3 17 16 12 
   2  10  10  10  10   6 21 20 17 16 15 14 
   8  10  10  10  10   5 21 20 16 15 14 
   2  10  10  10  10   4 21 20 15 14 
   9  10  10  10  10   3 20 19 18 
   4  10  10  10  10   2 19 18 
   1  10  10  10  10   1 18 
   4  10  10  10  10   1 18 
   2  10  10  10  10   1 18 
   6  10  10  10  10   1 22
  10  10  10  10  10   1 22
   8  10  10  10  10   1 22
   3  10  10  10  10   1 22
   0   0   0   0   0   0 
